sat
sat
sat
sat
sat
sat
sat
unknown
sat
sat
unsat
sat
(
  ;; universe for Bits_n:
  ;;   Bits_n!val!47 Bits_n!val!38 Bits_n!val!65 Bits_n!val!25 Bits_n!val!70 Bits_n!val!3 Bits_n!val!15 Bits_n!val!39 Bits_n!val!66 Bits_n!val!24 Bits_n!val!11 Bits_n!val!41 Bits_n!val!29 Bits_n!val!53 Bits_n!val!46 Bits_n!val!31 Bits_n!val!28 Bits_n!val!1 Bits_n!val!33 Bits_n!val!51 Bits_n!val!10 Bits_n!val!74 Bits_n!val!61 Bits_n!val!22 Bits_n!val!35 Bits_n!val!0 Bits_n!val!27 Bits_n!val!20 Bits_n!val!5 Bits_n!val!9 Bits_n!val!4 Bits_n!val!13 Bits_n!val!32 Bits_n!val!7 Bits_n!val!40 Bits_n!val!26 Bits_n!val!50 Bits_n!val!57 Bits_n!val!17 Bits_n!val!34 Bits_n!val!37 Bits_n!val!19 Bits_n!val!59 Bits_n!val!71 Bits_n!val!75 Bits_n!val!64 Bits_n!val!30 Bits_n!val!54 Bits_n!val!56 Bits_n!val!76 Bits_n!val!49 Bits_n!val!14 Bits_n!val!43 Bits_n!val!68 Bits_n!val!36 Bits_n!val!12 Bits_n!val!23 Bits_n!val!45 Bits_n!val!48 Bits_n!val!58 Bits_n!val!63 Bits_n!val!72 Bits_n!val!6 Bits_n!val!52 Bits_n!val!55 Bits_n!val!44 Bits_n!val!67 Bits_n!val!16 Bits_n!val!18 Bits_n!val!60 Bits_n!val!21 Bits_n!val!73 Bits_n!val!69 Bits_n!val!42 Bits_n!val!8 Bits_n!val!2 Bits_n!val!62 
  ;; -----------
  ;; definitions for universe elements:
  (declare-fun Bits_n!val!47 () Bits_n)
  (declare-fun Bits_n!val!38 () Bits_n)
  (declare-fun Bits_n!val!65 () Bits_n)
  (declare-fun Bits_n!val!25 () Bits_n)
  (declare-fun Bits_n!val!70 () Bits_n)
  (declare-fun Bits_n!val!3 () Bits_n)
  (declare-fun Bits_n!val!15 () Bits_n)
  (declare-fun Bits_n!val!39 () Bits_n)
  (declare-fun Bits_n!val!66 () Bits_n)
  (declare-fun Bits_n!val!24 () Bits_n)
  (declare-fun Bits_n!val!11 () Bits_n)
  (declare-fun Bits_n!val!41 () Bits_n)
  (declare-fun Bits_n!val!29 () Bits_n)
  (declare-fun Bits_n!val!53 () Bits_n)
  (declare-fun Bits_n!val!46 () Bits_n)
  (declare-fun Bits_n!val!31 () Bits_n)
  (declare-fun Bits_n!val!28 () Bits_n)
  (declare-fun Bits_n!val!1 () Bits_n)
  (declare-fun Bits_n!val!33 () Bits_n)
  (declare-fun Bits_n!val!51 () Bits_n)
  (declare-fun Bits_n!val!10 () Bits_n)
  (declare-fun Bits_n!val!74 () Bits_n)
  (declare-fun Bits_n!val!61 () Bits_n)
  (declare-fun Bits_n!val!22 () Bits_n)
  (declare-fun Bits_n!val!35 () Bits_n)
  (declare-fun Bits_n!val!0 () Bits_n)
  (declare-fun Bits_n!val!27 () Bits_n)
  (declare-fun Bits_n!val!20 () Bits_n)
  (declare-fun Bits_n!val!5 () Bits_n)
  (declare-fun Bits_n!val!9 () Bits_n)
  (declare-fun Bits_n!val!4 () Bits_n)
  (declare-fun Bits_n!val!13 () Bits_n)
  (declare-fun Bits_n!val!32 () Bits_n)
  (declare-fun Bits_n!val!7 () Bits_n)
  (declare-fun Bits_n!val!40 () Bits_n)
  (declare-fun Bits_n!val!26 () Bits_n)
  (declare-fun Bits_n!val!50 () Bits_n)
  (declare-fun Bits_n!val!57 () Bits_n)
  (declare-fun Bits_n!val!17 () Bits_n)
  (declare-fun Bits_n!val!34 () Bits_n)
  (declare-fun Bits_n!val!37 () Bits_n)
  (declare-fun Bits_n!val!19 () Bits_n)
  (declare-fun Bits_n!val!59 () Bits_n)
  (declare-fun Bits_n!val!71 () Bits_n)
  (declare-fun Bits_n!val!75 () Bits_n)
  (declare-fun Bits_n!val!64 () Bits_n)
  (declare-fun Bits_n!val!30 () Bits_n)
  (declare-fun Bits_n!val!54 () Bits_n)
  (declare-fun Bits_n!val!56 () Bits_n)
  (declare-fun Bits_n!val!76 () Bits_n)
  (declare-fun Bits_n!val!49 () Bits_n)
  (declare-fun Bits_n!val!14 () Bits_n)
  (declare-fun Bits_n!val!43 () Bits_n)
  (declare-fun Bits_n!val!68 () Bits_n)
  (declare-fun Bits_n!val!36 () Bits_n)
  (declare-fun Bits_n!val!12 () Bits_n)
  (declare-fun Bits_n!val!23 () Bits_n)
  (declare-fun Bits_n!val!45 () Bits_n)
  (declare-fun Bits_n!val!48 () Bits_n)
  (declare-fun Bits_n!val!58 () Bits_n)
  (declare-fun Bits_n!val!63 () Bits_n)
  (declare-fun Bits_n!val!72 () Bits_n)
  (declare-fun Bits_n!val!6 () Bits_n)
  (declare-fun Bits_n!val!52 () Bits_n)
  (declare-fun Bits_n!val!55 () Bits_n)
  (declare-fun Bits_n!val!44 () Bits_n)
  (declare-fun Bits_n!val!67 () Bits_n)
  (declare-fun Bits_n!val!16 () Bits_n)
  (declare-fun Bits_n!val!18 () Bits_n)
  (declare-fun Bits_n!val!60 () Bits_n)
  (declare-fun Bits_n!val!21 () Bits_n)
  (declare-fun Bits_n!val!73 () Bits_n)
  (declare-fun Bits_n!val!69 () Bits_n)
  (declare-fun Bits_n!val!42 () Bits_n)
  (declare-fun Bits_n!val!8 () Bits_n)
  (declare-fun Bits_n!val!2 () Bits_n)
  (declare-fun Bits_n!val!62 () Bits_n)
  ;; cardinality constraint:
  (forall ((x Bits_n))
          (or (= x Bits_n!val!47)
              (= x Bits_n!val!38)
              (= x Bits_n!val!65)
              (= x Bits_n!val!25)
              (= x Bits_n!val!70)
              (= x Bits_n!val!3)
              (= x Bits_n!val!15)
              (= x Bits_n!val!39)
              (= x Bits_n!val!66)
              (= x Bits_n!val!24)
              (= x Bits_n!val!11)
              (= x Bits_n!val!41)
              (= x Bits_n!val!29)
              (= x Bits_n!val!53)
              (= x Bits_n!val!46)
              (= x Bits_n!val!31)
              (= x Bits_n!val!28)
              (= x Bits_n!val!1)
              (= x Bits_n!val!33)
              (= x Bits_n!val!51)
              (= x Bits_n!val!10)
              (= x Bits_n!val!74)
              (= x Bits_n!val!61)
              (= x Bits_n!val!22)
              (= x Bits_n!val!35)
              (= x Bits_n!val!0)
              (= x Bits_n!val!27)
              (= x Bits_n!val!20)
              (= x Bits_n!val!5)
              (= x Bits_n!val!9)
              (= x Bits_n!val!4)
              (= x Bits_n!val!13)
              (= x Bits_n!val!32)
              (= x Bits_n!val!7)
              (= x Bits_n!val!40)
              (= x Bits_n!val!26)
              (= x Bits_n!val!50)
              (= x Bits_n!val!57)
              (= x Bits_n!val!17)
              (= x Bits_n!val!34)
              (= x Bits_n!val!37)
              (= x Bits_n!val!19)
              (= x Bits_n!val!59)
              (= x Bits_n!val!71)
              (= x Bits_n!val!75)
              (= x Bits_n!val!64)
              (= x Bits_n!val!30)
              (= x Bits_n!val!54)
              (= x Bits_n!val!56)
              (= x Bits_n!val!76)
              (= x Bits_n!val!49)
              (= x Bits_n!val!14)
              (= x Bits_n!val!43)
              (= x Bits_n!val!68)
              (= x Bits_n!val!36)
              (= x Bits_n!val!12)
              (= x Bits_n!val!23)
              (= x Bits_n!val!45)
              (= x Bits_n!val!48)
              (= x Bits_n!val!58)
              (= x Bits_n!val!63)
              (= x Bits_n!val!72)
              (= x Bits_n!val!6)
              (= x Bits_n!val!52)
              (= x Bits_n!val!55)
              (= x Bits_n!val!44)
              (= x Bits_n!val!67)
              (= x Bits_n!val!16)
              (= x Bits_n!val!18)
              (= x Bits_n!val!60)
              (= x Bits_n!val!21)
              (= x Bits_n!val!73)
              (= x Bits_n!val!69)
              (= x Bits_n!val!42)
              (= x Bits_n!val!8)
              (= x Bits_n!val!2)
              (= x Bits_n!val!62)))
  ;; -----------
  ;; universe for Bits_m:
  ;;   Bits_m!val!10 Bits_m!val!0 Bits_m!val!9 Bits_m!val!4 Bits_m!val!1 Bits_m!val!3 Bits_m!val!5 Bits_m!val!6 Bits_m!val!7 Bits_m!val!2 Bits_m!val!8 
  ;; -----------
  ;; definitions for universe elements:
  (declare-fun Bits_m!val!10 () Bits_m)
  (declare-fun Bits_m!val!0 () Bits_m)
  (declare-fun Bits_m!val!9 () Bits_m)
  (declare-fun Bits_m!val!4 () Bits_m)
  (declare-fun Bits_m!val!1 () Bits_m)
  (declare-fun Bits_m!val!3 () Bits_m)
  (declare-fun Bits_m!val!5 () Bits_m)
  (declare-fun Bits_m!val!6 () Bits_m)
  (declare-fun Bits_m!val!7 () Bits_m)
  (declare-fun Bits_m!val!2 () Bits_m)
  (declare-fun Bits_m!val!8 () Bits_m)
  ;; cardinality constraint:
  (forall ((x Bits_m))
          (or (= x Bits_m!val!10)
              (= x Bits_m!val!0)
              (= x Bits_m!val!9)
              (= x Bits_m!val!4)
              (= x Bits_m!val!1)
              (= x Bits_m!val!3)
              (= x Bits_m!val!5)
              (= x Bits_m!val!6)
              (= x Bits_m!val!7)
              (= x Bits_m!val!2)
              (= x Bits_m!val!8)))
  ;; -----------
  ;; universe for Bits_p:
  ;;   Bits_p!val!2 Bits_p!val!3 Bits_p!val!0 Bits_p!val!4 Bits_p!val!1 
  ;; -----------
  ;; definitions for universe elements:
  (declare-fun Bits_p!val!2 () Bits_p)
  (declare-fun Bits_p!val!3 () Bits_p)
  (declare-fun Bits_p!val!0 () Bits_p)
  (declare-fun Bits_p!val!4 () Bits_p)
  (declare-fun Bits_p!val!1 () Bits_p)
  ;; cardinality constraint:
  (forall ((x Bits_p))
          (or (= x Bits_p!val!2)
              (= x Bits_p!val!3)
              (= x Bits_p!val!0)
              (= x Bits_p!val!4)
              (= x Bits_p!val!1)))
  ;; -----------
  (define-fun is-abort-left () Bool
    false)
  (define-fun ctr-rr-left-new () Int
    7720)
  (define-fun table-top-left-old () (Array Int (Maybe (Array Bool (Maybe Bits_n))))
    (_ as-array k!991))
  (define-fun postcondition-holds () Bool
    false)
  (define-fun ctr-r-right () Int
    3240489)
  (define-fun table-bottom-left-old () (Array Int (Maybe (Array Bool (Maybe Bits_n))))
    (_ as-array k!992))
  (define-fun table-top-right-old () (Array Int (Maybe (Array Bool (Maybe Bits_n))))
    (_ as-array k!991))
  (define-fun lemma1 () Bool
    false)
  (define-fun debug-top-left () Bool
    true)
  (define-fun ctr-rr-right-new () Int
    7719)
  (define-fun rr-right () Bits_n
    Bits_n!val!0)
  (define-fun table-bottom-right-new () (Array Int (Maybe (Array Bool (Maybe Bits_n))))
    (_ as-array k!992))
  (define-fun return-right () Return_Right_simgate_GBLG
    (let ((a!1 (store (store ((as const (Array Int (Maybe Bool))) (mk-some false))
                         80
                         (mk-some true))
                  61
                  (mk-some true)))
      (a!2 (store (store ((as const (Array Int (Maybe Bool))) (mk-some false))
                         75
                         (mk-some true))
                  63
                  (mk-some true)))
      (a!4 (store (store ((as const (Array Int (Maybe Bool))) (mk-some false))
                         50
                         (mk-some true))
                  26
                  (mk-some true))))
(let ((a!3 (store (store (store a!2 49 (mk-some true)) 7 (mk-some true))
                  2
                  (mk-some true)))
      (a!5 (store (store (store a!4 65 (mk-some true)) 60 (mk-some true))
                  58
                  (mk-some true))))
(let ((a!6 (mk-state-Right-keys_top
             (_ as-array k!991)
             (store (store a!1 79 (mk-some true)) 7 (mk-some true))
             a!3
             (store a!5 71 (as mk-none (Maybe Bool))))))
  (mk-return-Right-simgate-GBLG
    (mk-composition-state-Right
      a!6
      (mk-state-Right-keys_bottom
        (_ as-array k!992)
        (store a!5 71 (as mk-none (Maybe Bool)))
        (_ as-array k!997)
        (_ as-array k!990))
      mk-state-Right-simgate
      mk-state-Right-ev
      Bits_n!val!18
      Bits_m!val!9
      16
      17
      18
      19
      20
      21
      3240489
      7719
      21239
      2438
      8856
      11798
      8366
      32286
      10451
      30613)
    (store ((as const (Array Bits_p (Maybe Bool))) (as mk-none (Maybe Bool)))
           Bits_p!val!4
           (mk-some true)))))))
  (define-fun ctr-r-left-new () Int
    3240490)
  (define-fun table-bottom-left-new () (Array Int (Maybe (Array Bool (Maybe Bits_n))))
    (_ as-array k!988))
  (define-fun table-top-left-new () (Array Int (Maybe (Array Bool (Maybe Bits_n))))
    (_ as-array k!991))
  (define-fun r-left () Bits_n
    Bits_n!val!22)
  (define-fun state-left-new () CompositionState-Left
    (let ((a!1 (store (store ((as const (Array Int (Maybe Bool))) (mk-some false))
                         57
                         (mk-some true))
                  34
                  (mk-some true)))
      (a!3 (store (store ((as const (Array Int (Maybe Bool))) (mk-some false))
                         36
                         (mk-some true))
                  35
                  (mk-some true))))
(let ((a!2 (store (store (store a!1 46 (mk-some true)) 41 (mk-some true))
                  24
                  (mk-some true)))
      (a!4 (store (store (store a!3 37 (mk-some true))
                         52
                         (as mk-none (Maybe Bool)))
                  23
                  (mk-some true))))
  (mk-composition-state-Left
    (mk-state-Left-keys_top
      (_ as-array k!991)
      (_ as-array k!990)
      (_ as-array k!990)
      (_ as-array k!989))
    (mk-state-Left-keys_bottom (_ as-array k!988) a!2 (_ as-array k!986) a!4)
    mk-state-Left-gate
    mk-state-Left-enc
    Bits_m!val!8
    8
    9
    10
    Bits_n!val!16
    13
    14
    15
    3240490
    7720
    3240499
    6863))))
  (define-fun standard-postcondition-holds () Bool
    false)
  (define-fun handle () Int
    93)
  (define-fun debug-bottom-right () Bool
    true)
  (define-fun ctr-r-right-new () Int
    3240489)
  (define-fun lemmas-hold () Bool
    false)
  (define-fun state-left-old () CompositionState-Left
    (let ((a!1 (store (store ((as const (Array Int (Maybe Bool))) (mk-some false))
                         57
                         (mk-some true))
                  34
                  (mk-some true)))
      (a!3 (store (store ((as const (Array Int (Maybe Bool))) (mk-some false))
                         36
                         (mk-some true))
                  35
                  (mk-some true))))
(let ((a!2 (store (store (store a!1 46 (mk-some true)) 41 (mk-some true))
                  24
                  (mk-some true)))
      (a!4 (store (store (store a!3 37 (mk-some true))
                         52
                         (as mk-none (Maybe Bool)))
                  23
                  (mk-some true))))
  (mk-composition-state-Left
    (mk-state-Left-keys_top
      (_ as-array k!991)
      (_ as-array k!990)
      (_ as-array k!990)
      (_ as-array k!989))
    (mk-state-Left-keys_bottom (_ as-array k!992) a!2 (_ as-array k!990) a!4)
    mk-state-Left-gate
    mk-state-Left-enc
    Bits_m!val!8
    8
    9
    10
    Bits_n!val!16
    13
    14
    15
    3240489
    7719
    3240491
    6859))))
  (define-fun ctr-rr-right () Int
    7719)
  (define-fun table-bottom-right-old () (Array Int (Maybe (Array Bool (Maybe Bits_n))))
    (_ as-array k!992))
  (define-fun value-right () (Array Bits_p (Maybe Bool))
    (store ((as const (Array Bits_p (Maybe Bool))) (as mk-none (Maybe Bool)))
       Bits_p!val!4
       (mk-some true)))
  (define-fun table-top-right-new () (Array Int (Maybe (Array Bool (Maybe Bits_n))))
    (_ as-array k!991))
  (define-fun ctr-r-left () Int
    3240489)
  (define-fun debug-bottom-left () Bool
    false)
  (define-fun Z-right () (Array Bool (Maybe Bits_n))
    (store (store ((as const (Array Bool (Maybe Bits_n))) (mk-some Bits_n!val!76))
              false
              (mk-some Bits_n!val!0))
       true
       (mk-some Bits_n!val!22)))
  (define-fun hhh () Int
    71)
  (define-fun r-right () Bits_n
    Bits_n!val!22)
  (define-fun return-left () Return_Left_gate_GBLG
    (let ((a!1 (store (store ((as const (Array Int (Maybe Bool))) (mk-some false))
                         57
                         (mk-some true))
                  34
                  (mk-some true)))
      (a!3 (store (store ((as const (Array Int (Maybe Bool))) (mk-some false))
                         36
                         (mk-some true))
                  35
                  (mk-some true))))
(let ((a!2 (store (store (store a!1 46 (mk-some true)) 41 (mk-some true))
                  24
                  (mk-some true)))
      (a!4 (store (store (store a!3 37 (mk-some true))
                         52
                         (as mk-none (Maybe Bool)))
                  23
                  (mk-some true))))
  (mk-return-Left-gate-GBLG
    (mk-composition-state-Left
      (mk-state-Left-keys_top
        (_ as-array k!991)
        (_ as-array k!990)
        (_ as-array k!990)
        (_ as-array k!989))
      (mk-state-Left-keys_bottom (_ as-array k!988) a!2 (_ as-array k!986) a!4)
      mk-state-Left-gate
      mk-state-Left-enc
      Bits_m!val!8
      8
      9
      10
      Bits_n!val!16
      13
      14
      15
      3240490
      7720
      3240499
      6863)
    (store ((as const (Array Bits_p (Maybe Bool))) (as mk-none (Maybe Bool)))
           Bits_p!val!3
           (mk-some true))))))
  (define-fun is-abort-right () Bool
    false)
  (define-fun r () Int
    7)
  (define-fun state-right-old () CompositionState-Right
    (let ((a!1 (store (store ((as const (Array Int (Maybe Bool))) (mk-some false))
                         80
                         (mk-some true))
                  61
                  (mk-some true)))
      (a!2 (store (store ((as const (Array Int (Maybe Bool))) (mk-some false))
                         75
                         (mk-some true))
                  63
                  (mk-some true)))
      (a!4 (store (store ((as const (Array Int (Maybe Bool))) (mk-some false))
                         50
                         (mk-some true))
                  26
                  (mk-some true))))
(let ((a!3 (store (store (store a!2 49 (mk-some true)) 7 (mk-some true))
                  2
                  (mk-some true)))
      (a!5 (store (store (store a!4 65 (mk-some true)) 60 (mk-some true))
                  58
                  (mk-some true))))
(let ((a!6 (mk-state-Right-keys_top
             (_ as-array k!991)
             (store (store a!1 79 (mk-some true)) 7 (mk-some true))
             a!3
             (store a!5 71 (as mk-none (Maybe Bool))))))
  (mk-composition-state-Right
    a!6
    (mk-state-Right-keys_bottom
      (_ as-array k!992)
      (store a!5 71 (as mk-none (Maybe Bool)))
      (_ as-array k!1001)
      (_ as-array k!990))
    mk-state-Right-simgate
    mk-state-Right-ev
    Bits_n!val!18
    Bits_m!val!9
    16
    17
    18
    19
    20
    21
    3240489
    7719
    21238
    2437
    8855
    11797
    8365
    32285
    10450
    30612)))))
  (define-fun debug-top-right () Bool
    true)
  (define-fun ctr-rr-left () Int
    7719)
  (define-fun lemma4 () Bool
    false)
  (define-fun l () Int
    2)
  (define-fun lemma3 () Bool
    false)
  (define-fun rr-left () Bits_n
    Bits_n!val!0)
  (define-fun Z-left () (Array Bool (Maybe Bits_n))
    (store (store ((as const (Array Bool (Maybe Bits_n))) (mk-some Bits_n!val!75))
              false
              (mk-some Bits_n!val!0))
       true
       (mk-some Bits_n!val!22)))
  (define-fun op () (Array (Tuple2 Bool Bool) (Maybe Bool))
    ((as const (Array (Tuple2 Bool Bool) (Maybe Bool))) (mk-some false)))
  (define-fun state-right-new () CompositionState-Right
    (let ((a!1 (store (store ((as const (Array Int (Maybe Bool))) (mk-some false))
                         80
                         (mk-some true))
                  61
                  (mk-some true)))
      (a!2 (store (store ((as const (Array Int (Maybe Bool))) (mk-some false))
                         75
                         (mk-some true))
                  63
                  (mk-some true)))
      (a!4 (store (store ((as const (Array Int (Maybe Bool))) (mk-some false))
                         50
                         (mk-some true))
                  26
                  (mk-some true))))
(let ((a!3 (store (store (store a!2 49 (mk-some true)) 7 (mk-some true))
                  2
                  (mk-some true)))
      (a!5 (store (store (store a!4 65 (mk-some true)) 60 (mk-some true))
                  58
                  (mk-some true))))
(let ((a!6 (mk-state-Right-keys_top
             (_ as-array k!991)
             (store (store a!1 79 (mk-some true)) 7 (mk-some true))
             a!3
             (store a!5 71 (as mk-none (Maybe Bool))))))
  (mk-composition-state-Right
    a!6
    (mk-state-Right-keys_bottom
      (_ as-array k!992)
      (store a!5 71 (as mk-none (Maybe Bool)))
      (_ as-array k!997)
      (_ as-array k!990))
    mk-state-Right-simgate
    mk-state-Right-ev
    Bits_n!val!18
    Bits_m!val!9
    16
    17
    18
    19
    20
    21
    3240489
    7719
    21239
    2438
    8856
    11798
    8366
    32286
    10451
    30613)))))
  (define-fun j () Int
    71)
  (define-fun precondition-holds () Bool
    true)
  (define-fun value-left () (Array Bits_p (Maybe Bool))
    (store ((as const (Array Bits_p (Maybe Bool))) (as mk-none (Maybe Bool)))
       Bits_p!val!3
       (mk-some true)))
  (define-fun lemma2 () Bool
    true)
  (define-fun lemma5 () Bool
    false)
  (define-fun zero_bits_n () Bits_n
    Bits_n!val!47)
  (define-fun bit () Bool
    false)
  (define-fun zero_bits_p () Bits_p
    Bits_p!val!2)
  (define-fun zero_bits_m () Bits_m
    Bits_m!val!10)
  (define-fun k!981 ((x!0 Bool)) (Maybe Bits_n)
    (ite (= x!0 false) (mk-some Bits_n!val!0)
      (as mk-none (Maybe Bits_n))))
  (define-fun k!967 ((x!0 Bool)) (Maybe Bits_n)
    (ite (= x!0 false) (mk-some Bits_n!val!37)
      (mk-some Bits_n!val!51)))
  (define-fun k!968 ((x!0 Bool)) (Maybe Bits_n)
    (ite (= x!0 false) (mk-some Bits_n!val!31)
    (ite (= x!0 true) (mk-some Bits_n!val!35)
      (mk-some Bits_n!val!39))))
  (define-fun k!991 ((x!0 Int)) (Maybe (Array Bool (Maybe Bits_n)))
    (ite (= x!0 98)
      (let ((a!1 (store (store ((as const (Array Bool (Maybe Bits_n)))
                                 (mk-some Bits_n!val!45))
                               false
                               (mk-some Bits_n!val!40))
                        true
                        (mk-some Bits_n!val!63))))
        (mk-some a!1))
    (ite (= x!0 82)
      (mk-some (store ((as const (Array Bool (Maybe Bits_n)))
                        (mk-some Bits_n!val!29))
                      false
                      (mk-some Bits_n!val!23)))
    (ite (= x!0 91)
      (let ((a!1 (store (store ((as const (Array Bool (Maybe Bits_n)))
                                 (mk-some Bits_n!val!32))
                               false
                               (mk-some Bits_n!val!28))
                        true
                        (mk-some Bits_n!val!54))))
        (mk-some a!1))
    (ite (= x!0 88)
      (mk-some (store ((as const (Array Bool (Maybe Bits_n)))
                        (mk-some Bits_n!val!61))
                      false
                      (mk-some Bits_n!val!55)))
    (ite (= x!0 81)
      (mk-some (store ((as const (Array Bool (Maybe Bits_n)))
                        (mk-some Bits_n!val!59))
                      false
                      (mk-some Bits_n!val!27)))
    (ite (= x!0 7)
      (let ((a!1 (store (store ((as const (Array Bool (Maybe Bits_n)))
                                 (mk-some Bits_n!val!71))
                               false
                               (mk-some Bits_n!val!17))
                        true
                        (mk-some Bits_n!val!14))))
        (mk-some a!1))
    (ite (= x!0 97) (as mk-none (Maybe (Array Bool (Maybe Bits_n))))
    (ite (= x!0 85)
      (let ((a!1 (store (store ((as const (Array Bool (Maybe Bits_n)))
                                 (mk-some Bits_n!val!50))
                               false
                               (mk-some Bits_n!val!44))
                        true
                        (mk-some Bits_n!val!60))))
        (mk-some a!1))
    (ite (= x!0 89)
      (mk-some (store ((as const (Array Bool (Maybe Bits_n)))
                        (mk-some Bits_n!val!48))
                      false
                      (mk-some Bits_n!val!46)))
    (ite (= x!0 90)
      (let ((a!1 (store (store ((as const (Array Bool (Maybe Bits_n)))
                                 (mk-some Bits_n!val!39))
                               false
                               (mk-some Bits_n!val!31))
                        true
                        (mk-some Bits_n!val!35))))
        (mk-some a!1))
    (ite (= x!0 2)
      (let ((a!1 (store (store ((as const (Array Bool (Maybe Bits_n)))
                                 (mk-some Bits_n!val!72))
                               false
                               (mk-some Bits_n!val!8))
                        true
                        (mk-some Bits_n!val!12))))
        (mk-some a!1))
    (ite (= x!0 87)
      (mk-some (store ((as const (Array Bool (Maybe Bits_n)))
                        (mk-some Bits_n!val!70))
                      false
                      (mk-some Bits_n!val!62)))
      (mk-some ((as const (Array Bool (Maybe Bits_n))) (mk-some Bits_n!val!73))))))))))))))))
  (define-fun __sample-rand-Right-Bits_n ((x!0 Int) (x!1 Int)) Bits_n
    (ite (and (= x!0 12) (= x!1 30612)) Bits_n!val!21
    (ite (and (= x!0 3) (= x!1 3240489)) Bits_n!val!22
    (ite (and (= x!0 4) (= x!1 7719)) Bits_n!val!0
      Bits_n!val!20))))
  (define-fun k!969 ((x!0 Bool)) (Maybe Bits_n)
    (ite (= x!0 false) (mk-some Bits_n!val!67)
      (mk-some Bits_n!val!65)))
  (define-fun k!992 ((x!0 Int)) (Maybe (Array Bool (Maybe Bits_n)))
    (ite (= x!0 71) (as mk-none (Maybe (Array Bool (Maybe Bits_n))))
    (ite (= x!0 83)
      (mk-some (store ((as const (Array Bool (Maybe Bits_n)))
                        (mk-some Bits_n!val!33))
                      false
                      (mk-some Bits_n!val!30)))
    (ite (= x!0 84)
      (mk-some (store ((as const (Array Bool (Maybe Bits_n)))
                        (mk-some Bits_n!val!41))
                      false
                      (mk-some Bits_n!val!24)))
    (ite (= x!0 92)
      (mk-some (store ((as const (Array Bool (Maybe Bits_n)))
                        (mk-some Bits_n!val!42))
                      false
                      (mk-some Bits_n!val!34)))
    (ite (= x!0 47)
      (let ((a!1 (store (store ((as const (Array Bool (Maybe Bits_n)))
                                 (mk-some Bits_n!val!64))
                               false
                               (mk-some Bits_n!val!53))
                        true
                        (mk-some Bits_n!val!43))))
        (mk-some a!1))
    (ite (= x!0 94)
      (mk-some (store ((as const (Array Bool (Maybe Bits_n)))
                        (mk-some Bits_n!val!66))
                      false
                      (mk-some Bits_n!val!47)))
    (ite (= x!0 85)
      (mk-some (store ((as const (Array Bool (Maybe Bits_n)))
                        (mk-some Bits_n!val!52))
                      false
                      (mk-some Bits_n!val!58)))
    (ite (= x!0 89)
      (mk-some (store ((as const (Array Bool (Maybe Bits_n)))
                        (mk-some Bits_n!val!65))
                      false
                      (mk-some Bits_n!val!67)))
    (ite (= x!0 96) (as mk-none (Maybe (Array Bool (Maybe Bits_n))))
    (ite (= x!0 95)
      (let ((a!1 (store (store ((as const (Array Bool (Maybe Bits_n)))
                                 (mk-some Bits_n!val!38))
                               false
                               (mk-some Bits_n!val!25))
                        true
                        (mk-some Bits_n!val!56))))
        (mk-some a!1))
    (ite (= x!0 86)
      (mk-some (store ((as const (Array Bool (Maybe Bits_n)))
                        (mk-some Bits_n!val!57))
                      false
                      (mk-some Bits_n!val!68)))
    (ite (= x!0 93)
      (mk-some (store ((as const (Array Bool (Maybe Bits_n)))
                        (mk-some Bits_n!val!51))
                      false
                      (mk-some Bits_n!val!37)))
    (ite (= x!0 87)
      (mk-some (store ((as const (Array Bool (Maybe Bits_n)))
                        (mk-some Bits_n!val!69))
                      false
                      (mk-some Bits_n!val!49)))
      (mk-some ((as const (Array Bool (Maybe Bits_n))) (mk-some Bits_n!val!74)))))))))))))))))
  (define-fun k!997 ((x!0 Int)) (Maybe Bool)
    (ite (= x!0 22) (mk-some true)
    (ite (= x!0 47) (mk-some true)
    (ite (= x!0 45) (as mk-none (Maybe Bool))
    (ite (= x!0 69) (as mk-none (Maybe Bool))
    (ite (= x!0 71) (mk-some true)
    (ite (= x!0 31) (mk-some true)
    (ite (= x!0 70) (as mk-none (Maybe Bool))
    (ite (= x!0 51) (mk-some true)
    (ite (= x!0 30) (mk-some true)
    (ite (= x!0 32) (mk-some true)
    (ite (= x!0 55) (mk-some true)
    (ite (= x!0 63) (as mk-none (Maybe Bool))
      (mk-some false))))))))))))))
  (define-fun k!970 ((x!0 Bool)) (Maybe Bits_n)
    (ite (= x!0 false) (mk-some Bits_n!val!55)
      (mk-some Bits_n!val!61)))
  (define-fun __func-Left-encm ((x!0 Bits_n) (x!1 Bits_m) (x!2 Bits_n)) Bits_p
    (ite (and (= x!0 Bits_n!val!17) (= x!1 Bits_m!val!3) (= x!2 Bits_n!val!6))
      Bits_p!val!1
    (ite (and (= x!0 Bits_n!val!14) (= x!1 Bits_m!val!5) (= x!2 Bits_n!val!10))
      Bits_p!val!2
    (ite (and (= x!0 Bits_n!val!14) (= x!1 Bits_m!val!7) (= x!2 Bits_n!val!15))
      Bits_p!val!3
      Bits_p!val!0))))
  (define-fun k!998 ((x!0 Int)) (Maybe Bool)
    (ite (= x!0 50) (mk-some true)
    (ite (= x!0 26) (mk-some true)
    (ite (= x!0 65) (mk-some true)
    (ite (= x!0 60) (mk-some true)
    (ite (= x!0 58) (mk-some true)
    (ite (= x!0 71) (as mk-none (Maybe Bool))
      (mk-some false))))))))
  (define-fun __sample-rand-Left-Bits_n ((x!0 Int) (x!1 Int)) Bits_n
    (ite (and (= x!0 5) (= x!1 3240491)) Bits_n!val!1
    (ite (and (= x!0 5) (= x!1 3240492)) Bits_n!val!2
    (ite (and (= x!0 6) (= x!1 6859)) Bits_n!val!3
    (ite (and (= x!0 5) (= x!1 3240493)) Bits_n!val!4
    (ite (and (= x!0 5) (= x!1 3240494)) Bits_n!val!5
    (ite (and (= x!0 6) (= x!1 6860)) Bits_n!val!6
    (ite (and (= x!0 5) (= x!1 3240495)) Bits_n!val!7
    (ite (and (= x!0 5) (= x!1 3240496)) Bits_n!val!9
    (ite (and (= x!0 6) (= x!1 6861)) Bits_n!val!10
    (ite (and (= x!0 5) (= x!1 3240497)) Bits_n!val!11
    (ite (and (= x!0 5) (= x!1 3240498)) Bits_n!val!13
    (ite (and (= x!0 6) (= x!1 6862)) Bits_n!val!15
    (ite (and (= x!0 3) (= x!1 3240489)) Bits_n!val!22
      Bits_n!val!0))))))))))))))
  (define-fun k!971 ((x!0 Bool)) (Maybe Bits_n)
    (ite (= x!0 false) (mk-some Bits_n!val!49)
      (mk-some Bits_n!val!69)))
  (define-fun k!999 ((x!0 Int)) (Maybe Bool)
    (ite (= x!0 75) (mk-some true)
    (ite (= x!0 63) (mk-some true)
    (ite (= x!0 49) (mk-some true)
    (ite (= x!0 7) (mk-some true)
    (ite (= x!0 2) (mk-some true)
      (mk-some false)))))))
  (define-fun k!985 ((x!0 Int)) (Maybe Bool)
    (ite (= x!0 36) (mk-some true)
    (ite (= x!0 35) (mk-some true)
    (ite (= x!0 37) (mk-some true)
    (ite (= x!0 52) (as mk-none (Maybe Bool))
    (ite (= x!0 23) (mk-some true)
      (mk-some false)))))))
  (define-fun k!972 ((x!0 Bool)) (Maybe Bits_n)
    (ite (= x!0 false) (mk-some Bits_n!val!62)
      (mk-some Bits_n!val!70)))
  (define-fun k!958 ((x!0 Bool)) (Maybe Bits_n)
    (ite (= x!0 false) (mk-some Bits_n!val!40)
    (ite (= x!0 true) (mk-some Bits_n!val!63)
      (mk-some Bits_n!val!45))))
  (define-fun __func-Right-encn ((x!0 Bits_n) (x!1 Bits_n) (x!2 Bits_n)) Bits_m
    Bits_m!val!10)
  (define-fun k!1000 ((x!0 Int)) (Maybe Bool)
    (ite (= x!0 80) (mk-some true)
    (ite (= x!0 61) (mk-some true)
    (ite (= x!0 79) (mk-some true)
    (ite (= x!0 7) (mk-some true)
      (mk-some false))))))
  (define-fun k!986 ((x!0 Int)) (Maybe Bool)
    (ite (= x!0 54) (mk-some true)
    (ite (= x!0 66) (mk-some true)
    (ite (= x!0 56) (mk-some true)
    (ite (= x!0 2) (mk-some true)
    (ite (= x!0 71) (mk-some true)
    (ite (= x!0 38) (mk-some true)
    (ite (= x!0 109) (mk-some true)
    (ite (= x!0 76) (mk-some true)
    (ite (= x!0 7) (mk-some true)
    (ite (= x!0 77) (mk-some true)
    (ite (= x!0 67) (mk-some true)
    (ite (= x!0 62) (mk-some true)
      (mk-some false))))))))))))))
  (define-fun k!973 ((x!0 Bool)) (Maybe Bits_n)
    (ite (= x!0 false) (mk-some Bits_n!val!68)
      (mk-some Bits_n!val!57)))
  (define-fun k!959 ((x!0 Bool)) (Maybe Bits_n)
    (ite (= x!0 false) (mk-some Bits_n!val!27)
      (mk-some Bits_n!val!59)))
  (define-fun k!1001 ((x!0 Int)) (Maybe Bool)
    (ite (= x!0 22) (mk-some true)
    (ite (= x!0 47) (mk-some true)
    (ite (= x!0 45) (as mk-none (Maybe Bool))
    (ite (= x!0 69) (as mk-none (Maybe Bool))
    (ite (= x!0 31) (mk-some true)
    (ite (= x!0 51) (mk-some true)
    (ite (= x!0 63) (as mk-none (Maybe Bool))
    (ite (= x!0 30) (mk-some true)
    (ite (= x!0 55) (mk-some true)
    (ite (= x!0 32) (mk-some true)
    (ite (= x!0 70) (as mk-none (Maybe Bool))
      (mk-some false)))))))))))))
  (define-fun k!987 ((x!0 Int)) (Maybe Bool)
    (ite (= x!0 57) (mk-some true)
    (ite (= x!0 34) (mk-some true)
    (ite (= x!0 46) (mk-some true)
    (ite (= x!0 41) (mk-some true)
    (ite (= x!0 24) (mk-some true)
      (mk-some false)))))))
  (define-fun k!974 ((x!0 Bool)) (Maybe Bits_n)
    (ite (= x!0 false) (mk-some Bits_n!val!58)
      (mk-some Bits_n!val!52)))
  (define-fun k!960 ((x!0 Bool)) (Maybe Bits_n)
    (ite (= x!0 false) (mk-some Bits_n!val!46)
      (mk-some Bits_n!val!48)))
  (define-fun k!975 ((x!0 Bool)) (Maybe Bits_n)
    (ite (= x!0 false) (mk-some Bits_n!val!44)
    (ite (= x!0 true) (mk-some Bits_n!val!60)
      (mk-some Bits_n!val!50))))
  (define-fun k!961 ((x!0 Bool)) (Maybe Bits_n)
    (ite (= x!0 false) (mk-some Bits_n!val!25)
    (ite (= x!0 true) (mk-some Bits_n!val!56)
      (mk-some Bits_n!val!38))))
  (define-fun k!989 ((x!0 Int)) (Maybe Bool)
    (ite (= x!0 33) (mk-some true)
    (ite (= x!0 2) (mk-some true)
    (ite (= x!0 28) (as mk-none (Maybe Bool))
    (ite (= x!0 42) (mk-some true)
    (ite (= x!0 40) (mk-some true)
    (ite (= x!0 48) (mk-some true)
    (ite (= x!0 74) (mk-some true)
    (ite (= x!0 59) (as mk-none (Maybe Bool))
      (mk-some false))))))))))
  (define-fun k!976 ((x!0 Bool)) (Maybe Bits_n)
    (ite (= x!0 false) (mk-some Bits_n!val!24)
      (mk-some Bits_n!val!41)))
  (define-fun k!962 ((x!0 Bool)) (Maybe Bits_n)
    (ite (= x!0 false) (mk-some Bits_n!val!34)
      (mk-some Bits_n!val!42)))
  (define-fun k!990 ((x!0 Int)) (Maybe Bool)
    (ite (= x!0 54) (mk-some true)
    (ite (= x!0 56) (mk-some true)
    (ite (= x!0 2) (mk-some true)
    (ite (= x!0 66) (mk-some true)
    (ite (= x!0 38) (mk-some true)
    (ite (= x!0 109) (mk-some true)
    (ite (= x!0 7) (mk-some true)
    (ite (= x!0 77) (mk-some true)
    (ite (= x!0 76) (mk-some true)
    (ite (= x!0 67) (mk-some true)
    (ite (= x!0 62) (mk-some true)
      (mk-some false)))))))))))))
  (define-fun __func-Right-encm ((x!0 Bits_n) (x!1 Bits_m) (x!2 Bits_n)) Bits_p
    Bits_p!val!4)
  (define-fun k!977 ((x!0 Bool)) (Maybe Bits_n)
    (ite (= x!0 false) (mk-some Bits_n!val!30)
      (mk-some Bits_n!val!33)))
  (define-fun k!963 ((x!0 Bool)) (Maybe Bits_n)
    (ite (= x!0 false) (mk-some Bits_n!val!28)
    (ite (= x!0 true) (mk-some Bits_n!val!54)
      (mk-some Bits_n!val!32))))
  (define-fun k!978 ((x!0 Bool)) (Maybe Bits_n)
    (ite (= x!0 false) (mk-some Bits_n!val!23)
      (mk-some Bits_n!val!29)))
  (define-fun k!964 ((x!0 Bool)) (Maybe Bits_n)
    (ite (= x!0 false) (mk-some Bits_n!val!26)
    (ite (= x!0 true) (as mk-none (Maybe Bits_n))
      (mk-some Bits_n!val!36))))
  (define-fun k!979 ((x!0 Bool)) (Maybe Bits_n)
    (ite (= x!0 false) (mk-some Bits_n!val!17)
    (ite (= x!0 true) (mk-some Bits_n!val!14)
      (mk-some Bits_n!val!71))))
  (define-fun k!965 ((x!0 Bool)) (Maybe Bits_n)
    (ite (= x!0 false) (mk-some Bits_n!val!47)
      (mk-some Bits_n!val!66)))
  (define-fun k!988 ((x!0 Int)) (Maybe (Array Bool (Maybe Bits_n)))
    (ite (= x!0 71)
      (mk-some (store ((as const (Array Bool (Maybe Bits_n)))
                        (as mk-none (Maybe Bits_n)))
                      false
                      (mk-some Bits_n!val!0)))
    (ite (= x!0 83)
      (mk-some (store ((as const (Array Bool (Maybe Bits_n)))
                        (mk-some Bits_n!val!33))
                      false
                      (mk-some Bits_n!val!30)))
    (ite (= x!0 47)
      (let ((a!1 (store (store ((as const (Array Bool (Maybe Bits_n)))
                                 (mk-some Bits_n!val!64))
                               false
                               (mk-some Bits_n!val!53))
                        true
                        (mk-some Bits_n!val!43))))
        (mk-some a!1))
    (ite (= x!0 84)
      (mk-some (store ((as const (Array Bool (Maybe Bits_n)))
                        (mk-some Bits_n!val!41))
                      false
                      (mk-some Bits_n!val!24)))
    (ite (= x!0 92)
      (mk-some (store ((as const (Array Bool (Maybe Bits_n)))
                        (mk-some Bits_n!val!42))
                      false
                      (mk-some Bits_n!val!34)))
    (ite (= x!0 94)
      (mk-some (store ((as const (Array Bool (Maybe Bits_n)))
                        (mk-some Bits_n!val!66))
                      false
                      (mk-some Bits_n!val!47)))
    (ite (= x!0 85)
      (mk-some (store ((as const (Array Bool (Maybe Bits_n)))
                        (mk-some Bits_n!val!52))
                      false
                      (mk-some Bits_n!val!58)))
    (ite (= x!0 89)
      (mk-some (store ((as const (Array Bool (Maybe Bits_n)))
                        (mk-some Bits_n!val!65))
                      false
                      (mk-some Bits_n!val!67)))
    (ite (= x!0 96) (as mk-none (Maybe (Array Bool (Maybe Bits_n))))
    (ite (= x!0 95)
      (let ((a!1 (store (store ((as const (Array Bool (Maybe Bits_n)))
                                 (mk-some Bits_n!val!38))
                               false
                               (mk-some Bits_n!val!25))
                        true
                        (mk-some Bits_n!val!56))))
        (mk-some a!1))
    (ite (= x!0 86)
      (mk-some (store ((as const (Array Bool (Maybe Bits_n)))
                        (mk-some Bits_n!val!57))
                      false
                      (mk-some Bits_n!val!68)))
    (ite (= x!0 93)
      (mk-some (store ((as const (Array Bool (Maybe Bits_n)))
                        (mk-some Bits_n!val!51))
                      false
                      (mk-some Bits_n!val!37)))
    (ite (= x!0 87)
      (mk-some (store ((as const (Array Bool (Maybe Bits_n)))
                        (mk-some Bits_n!val!69))
                      false
                      (mk-some Bits_n!val!49)))
      (mk-some ((as const (Array Bool (Maybe Bits_n))) (mk-some Bits_n!val!74)))))))))))))))))
  (define-fun k!980 ((x!0 Bool)) (Maybe Bits_n)
    (ite (= x!0 false) (mk-some Bits_n!val!8)
    (ite (= x!0 true) (mk-some Bits_n!val!12)
      (mk-some Bits_n!val!72))))
  (define-fun k!966 ((x!0 Bool)) (Maybe Bits_n)
    (ite (= x!0 false) (mk-some Bits_n!val!53)
    (ite (= x!0 true) (mk-some Bits_n!val!43)
      (mk-some Bits_n!val!64))))
  (define-fun __func-Left-encn ((x!0 Bits_n) (x!1 Bits_n) (x!2 Bits_n)) Bits_m
    (ite (and (= x!0 Bits_n!val!8) (= x!1 Bits_n!val!16) (= x!2 Bits_n!val!2))
      Bits_m!val!1
    (ite (and (= x!0 Bits_n!val!12) (= x!1 Bits_n!val!0) (= x!2 Bits_n!val!4))
      Bits_m!val!2
    (ite (and (= x!0 Bits_n!val!12) (= x!1 Bits_n!val!16) (= x!2 Bits_n!val!5))
      Bits_m!val!3
    (ite (and (= x!0 Bits_n!val!8) (= x!1 Bits_n!val!0) (= x!2 Bits_n!val!7))
      Bits_m!val!4
    (ite (and (= x!0 Bits_n!val!8) (= x!1 Bits_n!val!16) (= x!2 Bits_n!val!9))
      Bits_m!val!5
    (ite (and (= x!0 Bits_n!val!12) (= x!1 Bits_n!val!0) (= x!2 Bits_n!val!11))
      Bits_m!val!6
    (ite (and (= x!0 Bits_n!val!12) (= x!1 Bits_n!val!16) (= x!2 Bits_n!val!13))
      Bits_m!val!7
      Bits_m!val!0))))))))
)
sat
unknown
